instances/knapsack/discrete/knapsack_140_6.kp
71848
140
648

51 5.1 57
87 8.7 6
1 0.1 87
26 2.6 43
11 1.1 93
45 4.5 72
64 6.4 41
51 5.1 63
100 10.0 30
93 9.3 90
63 6.3 14
38 3.8 46
11 1.1 58
67 6.7 77
40 4.0 98
72 7.2 31
32 3.2 89
99 9.9 81
12 1.2 74
81 8.1 73
24 2.4 41
3 0.3 62
31 3.1 27
22 2.2 35
68 6.8 36
95 9.5 90
85 8.5 55
15 1.5 3
73 7.3 77
26 2.6 16
45 4.5 84
55 5.5 23
7 0.7 51
48 4.8 42
79 7.9 43
80 8.0 68
63 6.3 8
72 7.2 66
31 3.1 94
38 3.8 71
74 7.4 79
65 6.5 81
85 8.5 97
13 1.3 90
42 4.2 42
42 4.2 66
17 1.7 72
97 9.7 12
38 3.8 64
83 8.3 69
46 4.6 54
11 1.1 2
96 9.6 50
3 0.3 44
80 8.0 75
31 3.1 41
12 1.2 50
46 4.6 75
67 6.7 67
81 8.1 26
60 6.0 3
14 1.4 65
31 3.1 93
2 0.2 33
75 7.5 86
27 2.7 36
68 6.8 12
50 5.0 33
35 3.5 60
57 5.7 29
73 7.3 72
77 7.7 78
53 5.3 72
86 8.6 13
23 2.3 62
56 5.6 17
62 6.2 81
58 5.8 92
32 3.2 35
86 8.6 95
77 7.7 78
41 4.1 97
30 3.0 13
57 5.7 9
41 4.1 76
37 3.7 56
23 2.3 65
75 7.5 22
41 4.1 59
62 6.2 78
4 0.4 45
80 8.0 9
60 6.0 61
31 3.1 40
79 7.9 71
44 4.4 10
68 6.8 68
52 5.2 39
91 9.1 40
7 0.7 52
12 1.2 40
31 3.1 73
37 3.7 78
55 5.5 21
36 3.6 22
89 8.9 42
34 3.4 57
42 4.2 60
6 0.6 45
88 8.8 48
94 9.4 97
70 7.0 81
44 4.4 53
40 4.0 7
84 8.4 33
90 9.0 36
22 2.2 18
4 0.4 20
96 9.6 89
4 0.4 10
43 4.3 33
56 5.6 18
19 1.9 33
6 0.6 74
16 1.6 51
70 7.0 80
3 0.3 64
23 2.3 53
58 5.8 87
42 4.2 52
1 0.1 90
80 8.0 62
86 8.6 43
79 7.9 10
4 0.4 85
13 1.3 35
72 7.2 44
78 7.8 97
13 1.3 22
15 1.5 9

41347
652

[1.13 2.75 2.55 4.3 3.56 2.64 1.79 0.27 1.16 4.59 1.64 1.63 1.03 2.29 3.54 2.66 0.68 0.03 1.65 3.5 0.28 3.74 0.03 4.61 1.39 1.55 2.88 4.38 0.66 0.27 4.02 3.85 0.84 0.94 3.02 1.24 1.6 3.34 1.66 0.48 1.38 1.74 0.5 0.23 0.23 4.52 3.48 0.78 4.46 1.79 1.52 2.3 4.27 3.96 1.97 1.83 2.37 0.58 3.44 1.29 4.07 1.0 3.31 0.2 0.12 1.63 1.52 3.4 1.21 3.44 1.07 3.09 4.58 4.43 1.13 2.92 3.06 0.94 2.56 1.61 2.58 0.22 0.14 0.47 0.15 1.21 0.56 1.18 4.42 1.97 2.13 2.94 0.28 0.16 1.97 0.81 2.68 1.43 2.51 0.86 0.47 3.15 0.81 0.44 3.29 3.55 2.63 0.41 2.21 1.17 3.54 1.96 1.24 1.8 0.05 4.28 4.12 3.86 4.11 2.05 1.67 2.89 3.56 0.13 3.18 3.75 2.54 1.51 3.92 3.08 2.1 4.43 2.7 3.23 2.26 3.14 3.61 0.08 2.43 4.62]

[82 19 13 58 39 16 32 98 100 93 98 42 3 27 11 63 76 7 80 85 64 58 87 17 19 47 5 14 44 66 36 18 34 48 55 8 91 7 43 25 98 52 33 40 50 45 40 88 50 23 85 71 32 87 95 74 68 41 35 33 83 81 82 77 18 67 3 69 71 56 24 76 41 74 34 27 61 58 47 69 4 20 9 4 4 56 54 31 9 26 39 83 7 18 95 32 36 39 79 23 64 35 89 95 76 45 14 21 49 44 33 54 12 20 92 41 42 32 64 91 70 39 94 45 68 17 74 78 65 34 68 44 45 67 35 97 36 61 28 15]
