instances/knapsack/discrete/knapsack_140_6.lp
\ Model knapsack_140_6
\ LP format - for model browsing. Use MPS format to capture full model detail.
\ Signature: 0x9977cb8fbdb63468
Minimize
  - 83 x[0] - 11 x[1] - 69 x[2] - 41 x[3] - 46 x[4] - 22 x[5] - 34 x[6]
   - 72 x[7] - 63 x[8] - 47 x[9] - 64 x[10] - 52 x[11] - 40 x[12]
   - 35 x[13] - 72 x[14] - 37 x[15] - 99 x[16] - 71 x[17] - 99 x[18]
   - 58 x[19] - 22 x[20] - 100 x[21] - 65 x[22] - 81 x[23] - 38 x[24]
   - 83 x[25] - 73 x[26] - 72 x[27] - 55 x[28] - 57 x[29] - 58 x[30]
   - 61 x[31] - 65 x[32] - 96 x[33] - 88 x[34] - 10 x[35] - 54 x[36]
   - 96 x[37] - 95 x[38] - 12 x[39] - x[40] - 62 x[41] - 74 x[42]
   - 64 x[43] - 83 x[44] - 68 x[45] - 53 x[46] - 57 x[47] - 89 x[48]
   - 54 x[49] - 84 x[50] - 95 x[51] - 52 x[52] - 22 x[53] - 85 x[54]
   - 27 x[55] - 95 x[56] - 49 x[57] - 25 x[58] - 100 x[59] - 57 x[60]
   - 43 x[61] - 14 x[62] - 18 x[63] - 35 x[64] - 74 x[65] - 34 x[66]
   - 10 x[67] - 29 x[68] - 94 x[69] - 14 x[70] - 8 x[71] - 62 x[72]
   - 94 x[73] - 79 x[74] - 39 x[75] - 7 x[76] - 78 x[77] - 5 x[78]
   - 8 x[79] - 16 x[80] - 79 x[81] - 6 x[82] - 3 x[83] - 18 x[84]
   - 45 x[85] - 15 x[86] - 4 x[87] - 41 x[88] - 63 x[89] - 95 x[90]
   - 18 x[91] - 94 x[92] - 5 x[93] - 61 x[94] - 87 x[95] - 94 x[96]
   - 69 x[97] - 13 x[98] - 41 x[99] - 89 x[100] - 46 x[101] - 35 x[102]
   - 42 x[103] - 32 x[104] - 96 x[105] - 11 x[106] - 49 x[107] - 75 x[108]
   - 73 x[109] - 62 x[110] - 19 x[111] - 90 x[112] - 84 x[113] - 15 x[114]
   - 82 x[115] - 12 x[116] - 98 x[117] - 51 x[118] - 52 x[119] - 10 x[120]
   - 23 x[121] - 23 x[122] - 76 x[123] - 32 x[124] - 45 x[125] - 21 x[126]
   - 3 x[127] - 68 x[128] - 85 x[129] - 35 x[130] - 40 x[131] - 9 x[132]
   - 19 x[133] - 94 x[134] - 84 x[135] - 97 x[136] - 38 x[137] - 24 x[138]
   - 58 x[139]
Subject To
 primal_upper: 86 x[0] + 19 x[1] + 9 x[2] + 70 x[3] + 87 x[4] + 4 x[5]
   + 68 x[6] + 90 x[7] + 40 x[8] + 81 x[9] + 94 x[10] + 86 x[11] + 43 x[12]
   + 15 x[13] + 75 x[14] + 7 x[15] + 60 x[16] + 11 x[17] + 72 x[18]
   + 21 x[19] + 36 x[20] + 70 x[21] + 35 x[22] + 57 x[23] + 99 x[24]
   + 11 x[25] + x[26] + 58 x[27] + 100 x[28] + 18 x[29] + 88 x[30]
   + 38 x[31] + 2 x[32] + 28 x[33] + 99 x[34] + 84 x[35] + 99 x[36]
   + 43 x[37] + 3 x[38] + 29 x[39] + 34 x[40] + 52 x[41] + 21 x[42]
   + 36 x[43] + 54 x[44] + 81 x[45] + 84 x[46] + 52 x[47] + 30 x[48]
   + 79 x[49] + 61 x[50] + 43 x[51] + 32 x[52] + 83 x[53] + 87 x[54]
   + 74 x[55] + 60 x[56] + 13 x[57] + 43 x[58] + 61 x[59] + 47 x[60]
   + 29 x[61] + 30 x[62] + 89 x[63] + 86 x[64] + 11 x[65] + 31 x[66]
   + 5 x[67] + 51 x[68] + 24 x[69] + 84 x[70] + 92 x[71] + 37 x[72]
   + 30 x[73] + 62 x[74] + 55 x[75] + 33 x[76] + 18 x[77] + 95 x[78]
   + x[79] + 20 x[80] + 8 x[81] + 33 x[82] + 44 x[83] + 4 x[84] + 48 x[85]
   + 2 x[86] + 75 x[87] + 33 x[88] + 54 x[89] + 59 x[90] + 11 x[91]
   + 11 x[92] + 30 x[93] + 79 x[94] + 100 x[95] + 12 x[96] + 71 x[97]
   + 99 x[98] + 27 x[99] + 12 x[100] + 11 x[101] + 97 x[102] + 95 x[103]
   + 68 x[104] + 25 x[105] + 62 x[106] + 41 x[107] + 69 x[108] + 92 x[109]
   + 37 x[110] + 70 x[111] + 16 x[112] + 100 x[113] + 8 x[114] + 49 x[115]
   + 50 x[116] + 100 x[117] + 72 x[118] + 87 x[119] + 42 x[120] + 83 x[121]
   + 50 x[122] + 69 x[123] + 4 x[124] + 61 x[125] + 74 x[126] + 54 x[127]
   + 13 x[128] + 94 x[129] + 16 x[130] + 12 x[131] + 77 x[132] + 63 x[133]
   + 75 x[134] + 25 x[135] + 92 x[136] + 97 x[137] + 92 x[138] + 7 x[139]
   + 8.6 r[0] + 1.9 r[1] + 0.9 r[2] + 7 r[3] + 8.7 r[4] + 0.4 r[5]
   + 6.8 r[6] + 9 r[7] + 4 r[8] + 8.1 r[9] + 9.4 r[10] + 8.6 r[11]
   + 4.3 r[12] + 1.5 r[13] + 7.5 r[14] + 0.7 r[15] + 6 r[16] + 1.1 r[17]
   + 7.2 r[18] + 2.1 r[19] + 3.6 r[20] + 7 r[21] + 3.5 r[22] + 5.7 r[23]
   + 9.9 r[24] + 1.1 r[25] + 0.1 r[26] + 5.8 r[27] + 10 r[28] + 1.8 r[29]
   + 8.8 r[30] + 3.8 r[31] + 0.2 r[32] + 2.8 r[33] + 9.9 r[34] + 8.4 r[35]
   + 9.9 r[36] + 4.3 r[37] + 0.3 r[38] + 2.9 r[39] + 3.4 r[40] + 5.2 r[41]
   + 2.1 r[42] + 3.6 r[43] + 5.4 r[44] + 8.1 r[45] + 8.4 r[46] + 5.2 r[47]
   + 3 r[48] + 7.9 r[49] + 6.1 r[50] + 4.3 r[51] + 3.2 r[52] + 8.3 r[53]
   + 8.7 r[54] + 7.4 r[55] + 6 r[56] + 1.3 r[57] + 4.3 r[58] + 6.1 r[59]
   + 4.7 r[60] + 2.9 r[61] + 3 r[62] + 8.9 r[63] + 8.6 r[64] + 1.1 r[65]
   + 3.1 r[66] + 0.5 r[67] + 5.1 r[68] + 2.4 r[69] + 8.4 r[70] + 9.2 r[71]
   + 3.7 r[72] + 3 r[73] + 6.2 r[74] + 5.5 r[75] + 3.3 r[76] + 1.8 r[77]
   + 9.5 r[78] + 0.1 r[79] + 2 r[80] + 0.8 r[81] + 3.3 r[82] + 4.4 r[83]
   + 0.4 r[84] + 4.8 r[85] + 0.2 r[86] + 7.5 r[87] + 3.3 r[88] + 5.4 r[89]
   + 5.9 r[90] + 1.1 r[91] + 1.1 r[92] + 3 r[93] + 7.9 r[94] + 10 r[95]
   + 1.2 r[96] + 7.1 r[97] + 9.9 r[98] + 2.7 r[99] + 1.2 r[100]
   + 1.1 r[101] + 9.7 r[102] + 9.5 r[103] + 6.8 r[104] + 2.5 r[105]
   + 6.2 r[106] + 4.1 r[107] + 6.9 r[108] + 9.2 r[109] + 3.7 r[110]
   + 7 r[111] + 1.6 r[112] + 10 r[113] + 0.8 r[114] + 4.9 r[115] + 5 r[116]
   + 10 r[117] + 7.2 r[118] + 8.7 r[119] + 4.2 r[120] + 8.3 r[121]
   + 5 r[122] + 6.9 r[123] + 0.4 r[124] + 6.1 r[125] + 7.4 r[126]
   + 5.4 r[127] + 1.3 r[128] + 9.4 r[129] + 1.6 r[130] + 1.2 r[131]
   + 7.7 r[132] + 6.3 r[133] + 7.5 r[134] + 2.5 r[135] + 9.2 r[136]
   + 9.7 r[137] + 9.2 r[138] + 0.7 r[139] <= 676
 primal_lower: 3.802469127543005 x[0] + 3.661549966930256 x[1]
   + 4.13073884606931 x[2] + 3.305438530612642 x[3]
   + 1.928626318329593 x[4] + 2.486294830431135 x[5]
   + 1.217135197657387 x[6] + 0.5438069490164377 x[7]
   + 0.0345838130501546 x[8] + 0.749765000969207 x[9]
   + 2.416713395443391 x[10] + 3.288324026915136 x[11]
   + 3.126956150211416 x[12] + 2.581199057720204 x[13]
   + 4.241635137137056 x[14] + 2.52768214103941 x[15]
   + 3.515549844426161 x[16] + 0.9195040292543464 x[17]
   + 1.032540265422231 x[18] + 1.635251734047083 x[19]
   + 0.182382670301859 x[20] + 3.926051941351145 x[21]
   + 0.0972817834048834 x[22] + 4.095227755980771 x[23]
   + 2.226648129730842 x[24] + 2.167622542047968 x[25]
   + 0.0472856043943604 x[26] + 0.1139227445079138 x[27]
   + 2.266038128531855 x[28] + 2.331782822508386 x[29]
   + 2.357405022745675 x[30] + 0.5850861765362595 x[31]
   + 2.521207054600949 x[32] + 1.350058363215357 x[33]
   + 1.013683470037801 x[34] + 1.864374415368634 x[35]
   + 2.874396285994254 x[36] + 0.5704089903970003 x[37]
   + 1.224582999814325 x[38] + 4.278028039809174 x[39]
   + 1.917033247244339 x[40] + 2.063293474094533 x[41]
   + 2.41532343647133 x[42] + 1.050860630641536 x[43]
   + 3.414616155822662 x[44] + 2.404949239562787 x[45]
   + 3.705205090774769 x[46] + 1.374448640471475 x[47]
   + 2.675676984326238 x[48] + 3.392416614812617 x[49]
   + 2.577304124542541 x[50] + 0.8340567639221562 x[51]
   + 4.499245551143584 x[52] + 0.604223557011256 x[53]
   + 3.475252952257597 x[54] + 0.6442733840089783 x[55]
   + 1.226039134073325 x[56] + 1.480392226737139 x[57]
   + 4.404070761499633 x[58] + 1.149421205843676 x[59]
   + 2.209396862807161 x[60] + 4.447827220647918 x[61]
   + 0.4230332480067192 x[62] + 2.589349541897039 x[63]
   + 3.750087676692254 x[64] + 4.073224001203 x[65]
   + 3.905738816375553 x[66] + 1.259214822290595 x[67]
   + 1.034791265695378 x[68] + 4.589069192541491 x[69]
   + 1.830809095814172 x[70] + 2.218601655762406 x[71]
   + 1.251477562315938 x[72] + 4.175295961132201 x[73]
   + 3.317909314821529 x[74] + 1.709691999198306 x[75]
   + 1.779739993751296 x[76] + 2.51218209169943 x[77]
   + 1.194123127817902 x[78] + 2.370520090787798 x[79]
   + 4.019483636530404 x[80] + 0.5434358047083823 x[81]
   + 1.532809955307675 x[82] + 2.914442046531618 x[83]
   + 0.9943269871767376 x[84] + 2.681433523150599 x[85]
   + 3.102495596708861 x[86] + 2.226011025044527 x[87]
   + 4.300808850081517 x[88] + 3.708505836832463 x[89]
   + 2.26722990216859 x[90] + 1.225337030472486 x[91]
   + 1.927387483405058 x[92] + 1.082359027361232 x[93]
   + 3.694460950138427 x[94] + 1.646464547929832 x[95]
   + 3.26356787146327 x[96] + 3.616264330535132 x[97]
   + 0.4089741897955991 x[98] + 3.044335781948396 x[99]
   + 1.202365340484897 x[100] + 3.13001251679846 x[101]
   + 0.6727364072220499 x[102] + 3.081575314866646 x[103]
   + 0.6475231409312909 x[104] + 0.2722856332181716 x[105]
   + 4.253445830468913 x[106] + 2.968774635283302 x[107]
   + 4.380770479913095 x[108] + 0.8746884356796988 x[109]
   + 3.617985992408848 x[110] + 0.6539130525438238 x[111]
   + 4.600244079420926 x[112] + 4.192328241584138 x[113]
   + 3.501136199238308 x[114] + 2.236317049117649 x[115]
   + 3.988544330464679 x[116] + 1.82018260116888 x[117]
   + 1.403911867693777 x[118] + 1.930934373202939 x[119]
   + 2.148128781311691 x[120] + 1.607489491115743 x[121]
   + 3.670036140718376 x[122] + 0.3336122087481995 x[123]
   + 1.642917220438922 x[124] + 2.550882258969822 x[125]
   + 2.139288858148401 x[126] + 3.572194010367343 x[127]
   + 3.072579587311457 x[128] + 2.788219684688773 x[129]
   + 2.534872103918342 x[130] + 0.6730181614031427 x[131]
   + 4.642184800630121 x[132] + 1.855354812343081 x[133]
   + 1.669688262317025 x[134] + 2.262271350845372 x[135]
   + 3.552768009356738 x[136] + 3.885013033764235 x[137]
   + 0.0549182770297781 x[138] + 1.790334439107298 x[139] + 11 u[0]
   + 48 u[1] + 74 u[2] + 19 u[3] + 100 u[4] + 57 u[5] + 37 u[6] + 71 u[7]
   + 37 u[8] + 34 u[9] + 71 u[10] + 95 u[11] + 36 u[12] + 8 u[13]
   + 76 u[14] + 32 u[15] + 57 u[16] + 84 u[17] + 93 u[18] + 86 u[19]
   + 53 u[20] + 23 u[21] + 92 u[22] + 62 u[23] + 48 u[24] + 12 u[25]
   + 50 u[26] + 23 u[27] + 65 u[28] + 67 u[29] + 41 u[30] + 35 u[31]
   + 51 u[32] + u[33] + 100 u[34] + 33 u[35] + 96 u[36] + 12 u[37]
   + 4 u[38] + 94 u[39] + 47 u[40] + 37 u[41] + 18 u[42] + 17 u[43]
   + 19 u[44] + 82 u[45] + 81 u[46] + 49 u[47] + 55 u[48] + 16 u[49]
   + 10 u[50] + 56 u[51] + 29 u[52] + 32 u[53] + 68 u[54] + 55 u[55]
   + 49 u[56] + 86 u[57] + 8 u[58] + 6 u[59] + 12 u[60] + 98 u[61]
   + 35 u[62] + 38 u[63] + 19 u[64] + 76 u[65] + 16 u[66] + 86 u[67]
   + 100 u[68] + 17 u[69] + 37 u[70] + 73 u[71] + 58 u[72] + 3 u[73]
   + 99 u[74] + 60 u[75] + 38 u[76] + 47 u[77] + 36 u[78] + 70 u[79]
   + 97 u[80] + 81 u[81] + 78 u[82] + 13 u[83] + 25 u[84] + 57 u[85]
   + 15 u[86] + 40 u[87] + 10 u[88] + 59 u[89] + 36 u[90] + 96 u[91]
   + 28 u[92] + 7 u[93] + 16 u[94] + 93 u[95] + 17 u[96] + 8 u[97]
   + 20 u[98] + 40 u[99] + 61 u[100] + 88 u[101] + 6 u[102] + 72 u[103]
   + 45 u[104] + 74 u[105] + 7 u[106] + 46 u[107] + 70 u[108] + 61 u[109]
   + 38 u[110] + 3 u[111] + 37 u[112] + 37 u[113] + 57 u[114] + 42 u[115]
   + 47 u[116] + 89 u[117] + 85 u[118] + 100 u[119] + 15 u[120] + 84 u[121]
   + 83 u[122] + 98 u[123] + 49 u[124] + 14 u[125] + 79 u[126] + 95 u[127]
   + 18 u[128] + 91 u[129] + 13 u[130] + 29 u[131] + 6 u[132] + 72 u[133]
   + 32 u[134] + 86 u[135] + 29 u[136] + 74 u[137] + 69 u[138] + 20 u[139]
   <= 75781
 mccormick1[0]: - u[0] + r[0] <= 0
 mccormick1[1]: - u[1] + r[1] <= 0
 mccormick1[2]: - u[2] + r[2] <= 0
 mccormick1[3]: - u[3] + r[3] <= 0
 mccormick1[4]: - u[4] + r[4] <= 0
 mccormick1[5]: - u[5] + r[5] <= 0
 mccormick1[6]: - u[6] + r[6] <= 0
 mccormick1[7]: - u[7] + r[7] <= 0
 mccormick1[8]: - u[8] + r[8] <= 0
 mccormick1[9]: - u[9] + r[9] <= 0
 mccormick1[10]: - u[10] + r[10] <= 0
 mccormick1[11]: - u[11] + r[11] <= 0
 mccormick1[12]: - u[12] + r[12] <= 0
 mccormick1[13]: - u[13] + r[13] <= 0
 mccormick1[14]: - u[14] + r[14] <= 0
 mccormick1[15]: - u[15] + r[15] <= 0
 mccormick1[16]: - u[16] + r[16] <= 0
 mccormick1[17]: - u[17] + r[17] <= 0
 mccormick1[18]: - u[18] + r[18] <= 0
 mccormick1[19]: - u[19] + r[19] <= 0
 mccormick1[20]: - u[20] + r[20] <= 0
 mccormick1[21]: - u[21] + r[21] <= 0
 mccormick1[22]: - u[22] + r[22] <= 0
 mccormick1[23]: - u[23] + r[23] <= 0
 mccormick1[24]: - u[24] + r[24] <= 0
 mccormick1[25]: - u[25] + r[25] <= 0
 mccormick1[26]: - u[26] + r[26] <= 0
 mccormick1[27]: - u[27] + r[27] <= 0
 mccormick1[28]: - u[28] + r[28] <= 0
 mccormick1[29]: - u[29] + r[29] <= 0
 mccormick1[30]: - u[30] + r[30] <= 0
 mccormick1[31]: - u[31] + r[31] <= 0
 mccormick1[32]: - u[32] + r[32] <= 0
 mccormick1[33]: - u[33] + r[33] <= 0
 mccormick1[34]: - u[34] + r[34] <= 0
 mccormick1[35]: - u[35] + r[35] <= 0
 mccormick1[36]: - u[36] + r[36] <= 0
 mccormick1[37]: - u[37] + r[37] <= 0
 mccormick1[38]: - u[38] + r[38] <= 0
 mccormick1[39]: - u[39] + r[39] <= 0
 mccormick1[40]: - u[40] + r[40] <= 0
 mccormick1[41]: - u[41] + r[41] <= 0
 mccormick1[42]: - u[42] + r[42] <= 0
 mccormick1[43]: - u[43] + r[43] <= 0
 mccormick1[44]: - u[44] + r[44] <= 0
 mccormick1[45]: - u[45] + r[45] <= 0
 mccormick1[46]: - u[46] + r[46] <= 0
 mccormick1[47]: - u[47] + r[47] <= 0
 mccormick1[48]: - u[48] + r[48] <= 0
 mccormick1[49]: - u[49] + r[49] <= 0
 mccormick1[50]: - u[50] + r[50] <= 0
 mccormick1[51]: - u[51] + r[51] <= 0
 mccormick1[52]: - u[52] + r[52] <= 0
 mccormick1[53]: - u[53] + r[53] <= 0
 mccormick1[54]: - u[54] + r[54] <= 0
 mccormick1[55]: - u[55] + r[55] <= 0
 mccormick1[56]: - u[56] + r[56] <= 0
 mccormick1[57]: - u[57] + r[57] <= 0
 mccormick1[58]: - u[58] + r[58] <= 0
 mccormick1[59]: - u[59] + r[59] <= 0
 mccormick1[60]: - u[60] + r[60] <= 0
 mccormick1[61]: - u[61] + r[61] <= 0
 mccormick1[62]: - u[62] + r[62] <= 0
 mccormick1[63]: - u[63] + r[63] <= 0
 mccormick1[64]: - u[64] + r[64] <= 0
 mccormick1[65]: - u[65] + r[65] <= 0
 mccormick1[66]: - u[66] + r[66] <= 0
 mccormick1[67]: - u[67] + r[67] <= 0
 mccormick1[68]: - u[68] + r[68] <= 0
 mccormick1[69]: - u[69] + r[69] <= 0
 mccormick1[70]: - u[70] + r[70] <= 0
 mccormick1[71]: - u[71] + r[71] <= 0
 mccormick1[72]: - u[72] + r[72] <= 0
 mccormick1[73]: - u[73] + r[73] <= 0
 mccormick1[74]: - u[74] + r[74] <= 0
 mccormick1[75]: - u[75] + r[75] <= 0
 mccormick1[76]: - u[76] + r[76] <= 0
 mccormick1[77]: - u[77] + r[77] <= 0
 mccormick1[78]: - u[78] + r[78] <= 0
 mccormick1[79]: - u[79] + r[79] <= 0
 mccormick1[80]: - u[80] + r[80] <= 0
 mccormick1[81]: - u[81] + r[81] <= 0
 mccormick1[82]: - u[82] + r[82] <= 0
 mccormick1[83]: - u[83] + r[83] <= 0
 mccormick1[84]: - u[84] + r[84] <= 0
 mccormick1[85]: - u[85] + r[85] <= 0
 mccormick1[86]: - u[86] + r[86] <= 0
 mccormick1[87]: - u[87] + r[87] <= 0
 mccormick1[88]: - u[88] + r[88] <= 0
 mccormick1[89]: - u[89] + r[89] <= 0
 mccormick1[90]: - u[90] + r[90] <= 0
 mccormick1[91]: - u[91] + r[91] <= 0
 mccormick1[92]: - u[92] + r[92] <= 0
 mccormick1[93]: - u[93] + r[93] <= 0
 mccormick1[94]: - u[94] + r[94] <= 0
 mccormick1[95]: - u[95] + r[95] <= 0
 mccormick1[96]: - u[96] + r[96] <= 0
 mccormick1[97]: - u[97] + r[97] <= 0
 mccormick1[98]: - u[98] + r[98] <= 0
 mccormick1[99]: - u[99] + r[99] <= 0
 mccormick1[100]: - u[100] + r[100] <= 0
 mccormick1[101]: - u[101] + r[101] <= 0
 mccormick1[102]: - u[102] + r[102] <= 0
 mccormick1[103]: - u[103] + r[103] <= 0
 mccormick1[104]: - u[104] + r[104] <= 0
 mccormick1[105]: - u[105] + r[105] <= 0
 mccormick1[106]: - u[106] + r[106] <= 0
 mccormick1[107]: - u[107] + r[107] <= 0
 mccormick1[108]: - u[108] + r[108] <= 0
 mccormick1[109]: - u[109] + r[109] <= 0
 mccormick1[110]: - u[110] + r[110] <= 0
 mccormick1[111]: - u[111] + r[111] <= 0
 mccormick1[112]: - u[112] + r[112] <= 0
 mccormick1[113]: - u[113] + r[113] <= 0
 mccormick1[114]: - u[114] + r[114] <= 0
 mccormick1[115]: - u[115] + r[115] <= 0
 mccormick1[116]: - u[116] + r[116] <= 0
 mccormick1[117]: - u[117] + r[117] <= 0
 mccormick1[118]: - u[118] + r[118] <= 0
 mccormick1[119]: - u[119] + r[119] <= 0
 mccormick1[120]: - u[120] + r[120] <= 0
 mccormick1[121]: - u[121] + r[121] <= 0
 mccormick1[122]: - u[122] + r[122] <= 0
 mccormick1[123]: - u[123] + r[123] <= 0
 mccormick1[124]: - u[124] + r[124] <= 0
 mccormick1[125]: - u[125] + r[125] <= 0
 mccormick1[126]: - u[126] + r[126] <= 0
 mccormick1[127]: - u[127] + r[127] <= 0
 mccormick1[128]: - u[128] + r[128] <= 0
 mccormick1[129]: - u[129] + r[129] <= 0
 mccormick1[130]: - u[130] + r[130] <= 0
 mccormick1[131]: - u[131] + r[131] <= 0
 mccormick1[132]: - u[132] + r[132] <= 0
 mccormick1[133]: - u[133] + r[133] <= 0
 mccormick1[134]: - u[134] + r[134] <= 0
 mccormick1[135]: - u[135] + r[135] <= 0
 mccormick1[136]: - u[136] + r[136] <= 0
 mccormick1[137]: - u[137] + r[137] <= 0
 mccormick1[138]: - u[138] + r[138] <= 0
 mccormick1[139]: - u[139] + r[139] <= 0
 mccormick2[0]: - x[0] + r[0] <= 0
 mccormick2[1]: - x[1] + r[1] <= 0
 mccormick2[2]: - x[2] + r[2] <= 0
 mccormick2[3]: - x[3] + r[3] <= 0
 mccormick2[4]: - x[4] + r[4] <= 0
 mccormick2[5]: - x[5] + r[5] <= 0
 mccormick2[6]: - x[6] + r[6] <= 0
 mccormick2[7]: - x[7] + r[7] <= 0
 mccormick2[8]: - x[8] + r[8] <= 0
 mccormick2[9]: - x[9] + r[9] <= 0
 mccormick2[10]: - x[10] + r[10] <= 0
 mccormick2[11]: - x[11] + r[11] <= 0
 mccormick2[12]: - x[12] + r[12] <= 0
 mccormick2[13]: - x[13] + r[13] <= 0
 mccormick2[14]: - x[14] + r[14] <= 0
 mccormick2[15]: - x[15] + r[15] <= 0
 mccormick2[16]: - x[16] + r[16] <= 0
 mccormick2[17]: - x[17] + r[17] <= 0
 mccormick2[18]: - x[18] + r[18] <= 0
 mccormick2[19]: - x[19] + r[19] <= 0
 mccormick2[20]: - x[20] + r[20] <= 0
 mccormick2[21]: - x[21] + r[21] <= 0
 mccormick2[22]: - x[22] + r[22] <= 0
 mccormick2[23]: - x[23] + r[23] <= 0
 mccormick2[24]: - x[24] + r[24] <= 0
 mccormick2[25]: - x[25] + r[25] <= 0
 mccormick2[26]: - x[26] + r[26] <= 0
 mccormick2[27]: - x[27] + r[27] <= 0
 mccormick2[28]: - x[28] + r[28] <= 0
 mccormick2[29]: - x[29] + r[29] <= 0
 mccormick2[30]: - x[30] + r[30] <= 0
 mccormick2[31]: - x[31] + r[31] <= 0
 mccormick2[32]: - x[32] + r[32] <= 0
 mccormick2[33]: - x[33] + r[33] <= 0
 mccormick2[34]: - x[34] + r[34] <= 0
 mccormick2[35]: - x[35] + r[35] <= 0
 mccormick2[36]: - x[36] + r[36] <= 0
 mccormick2[37]: - x[37] + r[37] <= 0
 mccormick2[38]: - x[38] + r[38] <= 0
 mccormick2[39]: - x[39] + r[39] <= 0
 mccormick2[40]: - x[40] + r[40] <= 0
 mccormick2[41]: - x[41] + r[41] <= 0
 mccormick2[42]: - x[42] + r[42] <= 0
 mccormick2[43]: - x[43] + r[43] <= 0
 mccormick2[44]: - x[44] + r[44] <= 0
 mccormick2[45]: - x[45] + r[45] <= 0
 mccormick2[46]: - x[46] + r[46] <= 0
 mccormick2[47]: - x[47] + r[47] <= 0
 mccormick2[48]: - x[48] + r[48] <= 0
 mccormick2[49]: - x[49] + r[49] <= 0
 mccormick2[50]: - x[50] + r[50] <= 0
 mccormick2[51]: - x[51] + r[51] <= 0
 mccormick2[52]: - x[52] + r[52] <= 0
 mccormick2[53]: - x[53] + r[53] <= 0
 mccormick2[54]: - x[54] + r[54] <= 0
 mccormick2[55]: - x[55] + r[55] <= 0
 mccormick2[56]: - x[56] + r[56] <= 0
 mccormick2[57]: - x[57] + r[57] <= 0
 mccormick2[58]: - x[58] + r[58] <= 0
 mccormick2[59]: - x[59] + r[59] <= 0
 mccormick2[60]: - x[60] + r[60] <= 0
 mccormick2[61]: - x[61] + r[61] <= 0
 mccormick2[62]: - x[62] + r[62] <= 0
 mccormick2[63]: - x[63] + r[63] <= 0
 mccormick2[64]: - x[64] + r[64] <= 0
 mccormick2[65]: - x[65] + r[65] <= 0
 mccormick2[66]: - x[66] + r[66] <= 0
 mccormick2[67]: - x[67] + r[67] <= 0
 mccormick2[68]: - x[68] + r[68] <= 0
 mccormick2[69]: - x[69] + r[69] <= 0
 mccormick2[70]: - x[70] + r[70] <= 0
 mccormick2[71]: - x[71] + r[71] <= 0
 mccormick2[72]: - x[72] + r[72] <= 0
 mccormick2[73]: - x[73] + r[73] <= 0
 mccormick2[74]: - x[74] + r[74] <= 0
 mccormick2[75]: - x[75] + r[75] <= 0
 mccormick2[76]: - x[76] + r[76] <= 0
 mccormick2[77]: - x[77] + r[77] <= 0
 mccormick2[78]: - x[78] + r[78] <= 0
 mccormick2[79]: - x[79] + r[79] <= 0
 mccormick2[80]: - x[80] + r[80] <= 0
 mccormick2[81]: - x[81] + r[81] <= 0
 mccormick2[82]: - x[82] + r[82] <= 0
 mccormick2[83]: - x[83] + r[83] <= 0
 mccormick2[84]: - x[84] + r[84] <= 0
 mccormick2[85]: - x[85] + r[85] <= 0
 mccormick2[86]: - x[86] + r[86] <= 0
 mccormick2[87]: - x[87] + r[87] <= 0
 mccormick2[88]: - x[88] + r[88] <= 0
 mccormick2[89]: - x[89] + r[89] <= 0
 mccormick2[90]: - x[90] + r[90] <= 0
 mccormick2[91]: - x[91] + r[91] <= 0
 mccormick2[92]: - x[92] + r[92] <= 0
 mccormick2[93]: - x[93] + r[93] <= 0
 mccormick2[94]: - x[94] + r[94] <= 0
 mccormick2[95]: - x[95] + r[95] <= 0
 mccormick2[96]: - x[96] + r[96] <= 0
 mccormick2[97]: - x[97] + r[97] <= 0
 mccormick2[98]: - x[98] + r[98] <= 0
 mccormick2[99]: - x[99] + r[99] <= 0
 mccormick2[100]: - x[100] + r[100] <= 0
 mccormick2[101]: - x[101] + r[101] <= 0
 mccormick2[102]: - x[102] + r[102] <= 0
 mccormick2[103]: - x[103] + r[103] <= 0
 mccormick2[104]: - x[104] + r[104] <= 0
 mccormick2[105]: - x[105] + r[105] <= 0
 mccormick2[106]: - x[106] + r[106] <= 0
 mccormick2[107]: - x[107] + r[107] <= 0
 mccormick2[108]: - x[108] + r[108] <= 0
 mccormick2[109]: - x[109] + r[109] <= 0
 mccormick2[110]: - x[110] + r[110] <= 0
 mccormick2[111]: - x[111] + r[111] <= 0
 mccormick2[112]: - x[112] + r[112] <= 0
 mccormick2[113]: - x[113] + r[113] <= 0
 mccormick2[114]: - x[114] + r[114] <= 0
 mccormick2[115]: - x[115] + r[115] <= 0
 mccormick2[116]: - x[116] + r[116] <= 0
 mccormick2[117]: - x[117] + r[117] <= 0
 mccormick2[118]: - x[118] + r[118] <= 0
 mccormick2[119]: - x[119] + r[119] <= 0
 mccormick2[120]: - x[120] + r[120] <= 0
 mccormick2[121]: - x[121] + r[121] <= 0
 mccormick2[122]: - x[122] + r[122] <= 0
 mccormick2[123]: - x[123] + r[123] <= 0
 mccormick2[124]: - x[124] + r[124] <= 0
 mccormick2[125]: - x[125] + r[125] <= 0
 mccormick2[126]: - x[126] + r[126] <= 0
 mccormick2[127]: - x[127] + r[127] <= 0
 mccormick2[128]: - x[128] + r[128] <= 0
 mccormick2[129]: - x[129] + r[129] <= 0
 mccormick2[130]: - x[130] + r[130] <= 0
 mccormick2[131]: - x[131] + r[131] <= 0
 mccormick2[132]: - x[132] + r[132] <= 0
 mccormick2[133]: - x[133] + r[133] <= 0
 mccormick2[134]: - x[134] + r[134] <= 0
 mccormick2[135]: - x[135] + r[135] <= 0
 mccormick2[136]: - x[136] + r[136] <= 0
 mccormick2[137]: - x[137] + r[137] <= 0
 mccormick2[138]: - x[138] + r[138] <= 0
 mccormick2[139]: - x[139] + r[139] <= 0
 mccormick3[0]: x[0] + u[0] - r[0] <= 1
 mccormick3[1]: x[1] + u[1] - r[1] <= 1
 mccormick3[2]: x[2] + u[2] - r[2] <= 1
 mccormick3[3]: x[3] + u[3] - r[3] <= 1
 mccormick3[4]: x[4] + u[4] - r[4] <= 1
 mccormick3[5]: x[5] + u[5] - r[5] <= 1
 mccormick3[6]: x[6] + u[6] - r[6] <= 1
 mccormick3[7]: x[7] + u[7] - r[7] <= 1
 mccormick3[8]: x[8] + u[8] - r[8] <= 1
 mccormick3[9]: x[9] + u[9] - r[9] <= 1
 mccormick3[10]: x[10] + u[10] - r[10] <= 1
 mccormick3[11]: x[11] + u[11] - r[11] <= 1
 mccormick3[12]: x[12] + u[12] - r[12] <= 1
 mccormick3[13]: x[13] + u[13] - r[13] <= 1
 mccormick3[14]: x[14] + u[14] - r[14] <= 1
 mccormick3[15]: x[15] + u[15] - r[15] <= 1
 mccormick3[16]: x[16] + u[16] - r[16] <= 1
 mccormick3[17]: x[17] + u[17] - r[17] <= 1
 mccormick3[18]: x[18] + u[18] - r[18] <= 1
 mccormick3[19]: x[19] + u[19] - r[19] <= 1
 mccormick3[20]: x[20] + u[20] - r[20] <= 1
 mccormick3[21]: x[21] + u[21] - r[21] <= 1
 mccormick3[22]: x[22] + u[22] - r[22] <= 1
 mccormick3[23]: x[23] + u[23] - r[23] <= 1
 mccormick3[24]: x[24] + u[24] - r[24] <= 1
 mccormick3[25]: x[25] + u[25] - r[25] <= 1
 mccormick3[26]: x[26] + u[26] - r[26] <= 1
 mccormick3[27]: x[27] + u[27] - r[27] <= 1
 mccormick3[28]: x[28] + u[28] - r[28] <= 1
 mccormick3[29]: x[29] + u[29] - r[29] <= 1
 mccormick3[30]: x[30] + u[30] - r[30] <= 1
 mccormick3[31]: x[31] + u[31] - r[31] <= 1
 mccormick3[32]: x[32] + u[32] - r[32] <= 1
 mccormick3[33]: x[33] + u[33] - r[33] <= 1
 mccormick3[34]: x[34] + u[34] - r[34] <= 1
 mccormick3[35]: x[35] + u[35] - r[35] <= 1
 mccormick3[36]: x[36] + u[36] - r[36] <= 1
 mccormick3[37]: x[37] + u[37] - r[37] <= 1
 mccormick3[38]: x[38] + u[38] - r[38] <= 1
 mccormick3[39]: x[39] + u[39] - r[39] <= 1
 mccormick3[40]: x[40] + u[40] - r[40] <= 1
 mccormick3[41]: x[41] + u[41] - r[41] <= 1
 mccormick3[42]: x[42] + u[42] - r[42] <= 1
 mccormick3[43]: x[43] + u[43] - r[43] <= 1
 mccormick3[44]: x[44] + u[44] - r[44] <= 1
 mccormick3[45]: x[45] + u[45] - r[45] <= 1
 mccormick3[46]: x[46] + u[46] - r[46] <= 1
 mccormick3[47]: x[47] + u[47] - r[47] <= 1
 mccormick3[48]: x[48] + u[48] - r[48] <= 1
 mccormick3[49]: x[49] + u[49] - r[49] <= 1
 mccormick3[50]: x[50] + u[50] - r[50] <= 1
 mccormick3[51]: x[51] + u[51] - r[51] <= 1
 mccormick3[52]: x[52] + u[52] - r[52] <= 1
 mccormick3[53]: x[53] + u[53] - r[53] <= 1
 mccormick3[54]: x[54] + u[54] - r[54] <= 1
 mccormick3[55]: x[55] + u[55] - r[55] <= 1
 mccormick3[56]: x[56] + u[56] - r[56] <= 1
 mccormick3[57]: x[57] + u[57] - r[57] <= 1
 mccormick3[58]: x[58] + u[58] - r[58] <= 1
 mccormick3[59]: x[59] + u[59] - r[59] <= 1
 mccormick3[60]: x[60] + u[60] - r[60] <= 1
 mccormick3[61]: x[61] + u[61] - r[61] <= 1
 mccormick3[62]: x[62] + u[62] - r[62] <= 1
 mccormick3[63]: x[63] + u[63] - r[63] <= 1
 mccormick3[64]: x[64] + u[64] - r[64] <= 1
 mccormick3[65]: x[65] + u[65] - r[65] <= 1
 mccormick3[66]: x[66] + u[66] - r[66] <= 1
 mccormick3[67]: x[67] + u[67] - r[67] <= 1
 mccormick3[68]: x[68] + u[68] - r[68] <= 1
 mccormick3[69]: x[69] + u[69] - r[69] <= 1
 mccormick3[70]: x[70] + u[70] - r[70] <= 1
 mccormick3[71]: x[71] + u[71] - r[71] <= 1
 mccormick3[72]: x[72] + u[72] - r[72] <= 1
 mccormick3[73]: x[73] + u[73] - r[73] <= 1
 mccormick3[74]: x[74] + u[74] - r[74] <= 1
 mccormick3[75]: x[75] + u[75] - r[75] <= 1
 mccormick3[76]: x[76] + u[76] - r[76] <= 1
 mccormick3[77]: x[77] + u[77] - r[77] <= 1
 mccormick3[78]: x[78] + u[78] - r[78] <= 1
 mccormick3[79]: x[79] + u[79] - r[79] <= 1
 mccormick3[80]: x[80] + u[80] - r[80] <= 1
 mccormick3[81]: x[81] + u[81] - r[81] <= 1
 mccormick3[82]: x[82] + u[82] - r[82] <= 1
 mccormick3[83]: x[83] + u[83] - r[83] <= 1
 mccormick3[84]: x[84] + u[84] - r[84] <= 1
 mccormick3[85]: x[85] + u[85] - r[85] <= 1
 mccormick3[86]: x[86] + u[86] - r[86] <= 1
 mccormick3[87]: x[87] + u[87] - r[87] <= 1
 mccormick3[88]: x[88] + u[88] - r[88] <= 1
 mccormick3[89]: x[89] + u[89] - r[89] <= 1
 mccormick3[90]: x[90] + u[90] - r[90] <= 1
 mccormick3[91]: x[91] + u[91] - r[91] <= 1
 mccormick3[92]: x[92] + u[92] - r[92] <= 1
 mccormick3[93]: x[93] + u[93] - r[93] <= 1
 mccormick3[94]: x[94] + u[94] - r[94] <= 1
 mccormick3[95]: x[95] + u[95] - r[95] <= 1
 mccormick3[96]: x[96] + u[96] - r[96] <= 1
 mccormick3[97]: x[97] + u[97] - r[97] <= 1
 mccormick3[98]: x[98] + u[98] - r[98] <= 1
 mccormick3[99]: x[99] + u[99] - r[99] <= 1
 mccormick3[100]: x[100] + u[100] - r[100] <= 1
 mccormick3[101]: x[101] + u[101] - r[101] <= 1
 mccormick3[102]: x[102] + u[102] - r[102] <= 1
 mccormick3[103]: x[103] + u[103] - r[103] <= 1
 mccormick3[104]: x[104] + u[104] - r[104] <= 1
 mccormick3[105]: x[105] + u[105] - r[105] <= 1
 mccormick3[106]: x[106] + u[106] - r[106] <= 1
 mccormick3[107]: x[107] + u[107] - r[107] <= 1
 mccormick3[108]: x[108] + u[108] - r[108] <= 1
 mccormick3[109]: x[109] + u[109] - r[109] <= 1
 mccormick3[110]: x[110] + u[110] - r[110] <= 1
 mccormick3[111]: x[111] + u[111] - r[111] <= 1
 mccormick3[112]: x[112] + u[112] - r[112] <= 1
 mccormick3[113]: x[113] + u[113] - r[113] <= 1
 mccormick3[114]: x[114] + u[114] - r[114] <= 1
 mccormick3[115]: x[115] + u[115] - r[115] <= 1
 mccormick3[116]: x[116] + u[116] - r[116] <= 1
 mccormick3[117]: x[117] + u[117] - r[117] <= 1
 mccormick3[118]: x[118] + u[118] - r[118] <= 1
 mccormick3[119]: x[119] + u[119] - r[119] <= 1
 mccormick3[120]: x[120] + u[120] - r[120] <= 1
 mccormick3[121]: x[121] + u[121] - r[121] <= 1
 mccormick3[122]: x[122] + u[122] - r[122] <= 1
 mccormick3[123]: x[123] + u[123] - r[123] <= 1
 mccormick3[124]: x[124] + u[124] - r[124] <= 1
 mccormick3[125]: x[125] + u[125] - r[125] <= 1
 mccormick3[126]: x[126] + u[126] - r[126] <= 1
 mccormick3[127]: x[127] + u[127] - r[127] <= 1
 mccormick3[128]: x[128] + u[128] - r[128] <= 1
 mccormick3[129]: x[129] + u[129] - r[129] <= 1
 mccormick3[130]: x[130] + u[130] - r[130] <= 1
 mccormick3[131]: x[131] + u[131] - r[131] <= 1
 mccormick3[132]: x[132] + u[132] - r[132] <= 1
 mccormick3[133]: x[133] + u[133] - r[133] <= 1
 mccormick3[134]: x[134] + u[134] - r[134] <= 1
 mccormick3[135]: x[135] + u[135] - r[135] <= 1
 mccormick3[136]: x[136] + u[136] - r[136] <= 1
 mccormick3[137]: x[137] + u[137] - r[137] <= 1
 mccormick3[138]: x[138] + u[138] - r[138] <= 1
 mccormick3[139]: x[139] + u[139] - r[139] <= 1
Bounds
Binaries
 x[0] x[1] x[2] x[3] x[4] x[5] x[6] x[7] x[8] x[9] x[10] x[11] x[12] x[13]
 x[14] x[15] x[16] x[17] x[18] x[19] x[20] x[21] x[22] x[23] x[24] x[25]
 x[26] x[27] x[28] x[29] x[30] x[31] x[32] x[33] x[34] x[35] x[36] x[37]
 x[38] x[39] x[40] x[41] x[42] x[43] x[44] x[45] x[46] x[47] x[48] x[49]
 x[50] x[51] x[52] x[53] x[54] x[55] x[56] x[57] x[58] x[59] x[60] x[61]
 x[62] x[63] x[64] x[65] x[66] x[67] x[68] x[69] x[70] x[71] x[72] x[73]
 x[74] x[75] x[76] x[77] x[78] x[79] x[80] x[81] x[82] x[83] x[84] x[85]
 x[86] x[87] x[88] x[89] x[90] x[91] x[92] x[93] x[94] x[95] x[96] x[97]
 x[98] x[99] x[100] x[101] x[102] x[103] x[104] x[105] x[106] x[107] x[108]
 x[109] x[110] x[111] x[112] x[113] x[114] x[115] x[116] x[117] x[118]
 x[119] x[120] x[121] x[122] x[123] x[124] x[125] x[126] x[127] x[128]
 x[129] x[130] x[131] x[132] x[133] x[134] x[135] x[136] x[137] x[138]
 x[139] u[0] u[1] u[2] u[3] u[4] u[5] u[6] u[7] u[8] u[9] u[10] u[11] u[12]
 u[13] u[14] u[15] u[16] u[17] u[18] u[19] u[20] u[21] u[22] u[23] u[24]
 u[25] u[26] u[27] u[28] u[29] u[30] u[31] u[32] u[33] u[34] u[35] u[36]
 u[37] u[38] u[39] u[40] u[41] u[42] u[43] u[44] u[45] u[46] u[47] u[48]
 u[49] u[50] u[51] u[52] u[53] u[54] u[55] u[56] u[57] u[58] u[59] u[60]
 u[61] u[62] u[63] u[64] u[65] u[66] u[67] u[68] u[69] u[70] u[71] u[72]
 u[73] u[74] u[75] u[76] u[77] u[78] u[79] u[80] u[81] u[82] u[83] u[84]
 u[85] u[86] u[87] u[88] u[89] u[90] u[91] u[92] u[93] u[94] u[95] u[96]
 u[97] u[98] u[99] u[100] u[101] u[102] u[103] u[104] u[105] u[106] u[107]
 u[108] u[109] u[110] u[111] u[112] u[113] u[114] u[115] u[116] u[117]
 u[118] u[119] u[120] u[121] u[122] u[123] u[124] u[125] u[126] u[127]
 u[128] u[129] u[130] u[131] u[132] u[133] u[134] u[135] u[136] u[137]
 u[138] u[139] r[0] r[1] r[2] r[3] r[4] r[5] r[6] r[7] r[8] r[9] r[10]
 r[11] r[12] r[13] r[14] r[15] r[16] r[17] r[18] r[19] r[20] r[21] r[22]
 r[23] r[24] r[25] r[26] r[27] r[28] r[29] r[30] r[31] r[32] r[33] r[34]
 r[35] r[36] r[37] r[38] r[39] r[40] r[41] r[42] r[43] r[44] r[45] r[46]
 r[47] r[48] r[49] r[50] r[51] r[52] r[53] r[54] r[55] r[56] r[57] r[58]
 r[59] r[60] r[61] r[62] r[63] r[64] r[65] r[66] r[67] r[68] r[69] r[70]
 r[71] r[72] r[73] r[74] r[75] r[76] r[77] r[78] r[79] r[80] r[81] r[82]
 r[83] r[84] r[85] r[86] r[87] r[88] r[89] r[90] r[91] r[92] r[93] r[94]
 r[95] r[96] r[97] r[98] r[99] r[100] r[101] r[102] r[103] r[104] r[105]
 r[106] r[107] r[108] r[109] r[110] r[111] r[112] r[113] r[114] r[115]
 r[116] r[117] r[118] r[119] r[120] r[121] r[122] r[123] r[124] r[125]
 r[126] r[127] r[128] r[129] r[130] r[131] r[132] r[133] r[134] r[135]
 r[136] r[137] r[138] r[139]
End
